START INSTANCE
evidence-10.lp
clingo version 5.4.0
Reading from ...roblog_benchmarks/lpmln_smokers/asp.pl
Solving...
OPTIMUM FOUND

Models       : 25
  Optimum    : yes
Optimization : 0
Calls        : 1
Time         : 0.006s (Solving: 0.00s 1st Model: 0.00s Unsat: 0.00s)
CPU Time     : 0.003s
Total time:  0.5425724983215332
0.97user 0.22system 0:00.99elapsed 120%CPU (0avgtext+0avgdata 74304maxresident)k
6968inputs+8outputs (48major+30007minor)pagefaults 0swaps
EXIT CODE 0

START INSTANCE
evidence-50.lp
clingo version 5.4.0
Reading from ...roblog_benchmarks/lpmln_smokers/asp.pl
Solving...
OPTIMUM FOUND

Models       : 353
  Optimum    : yes
Optimization : 0
Calls        : 1
Time         : 0.020s (Solving: 0.00s 1st Model: 0.00s Unsat: 0.00s)
CPU Time     : 0.020s
Total time:  0.7524816989898682
1.19user 0.23system 0:01.21elapsed 117%CPU (0avgtext+0avgdata 74892maxresident)k
0inputs+88outputs (6major+30307minor)pagefaults 0swaps
EXIT CODE 0

START INSTANCE
evidence-100.lp
clingo version 5.4.0
Reading from ...roblog_benchmarks/lpmln_smokers/asp.pl
Solving...
OPTIMUM FOUND

Models       : 1488
  Optimum    : yes
Optimization : 0
Calls        : 1
Time         : 0.076s (Solving: 0.02s 1st Model: 0.00s Unsat: 0.00s)
CPU Time     : 0.073s
Total time:  1.5621094703674316
2.01user 0.22system 0:02.02elapsed 110%CPU (0avgtext+0avgdata 76784maxresident)k
0inputs+336outputs (5major+31189minor)pagefaults 0swaps
EXIT CODE 0

START INSTANCE
evidence-200.lp
clingo version 5.4.0
Reading from ...roblog_benchmarks/lpmln_smokers/asp.pl
Solving...
OPTIMUM FOUND

Models       : 2590
  Optimum    : yes
Optimization : 0
Calls        : 1
Time         : 0.183s (Solving: 0.04s 1st Model: 0.00s Unsat: 0.00s)
CPU Time     : 0.183s
Total time:  5.339752912521362
5.73user 0.25system 0:05.77elapsed 103%CPU (0avgtext+0avgdata 84748maxresident)k
0inputs+1168outputs (5major+35457minor)pagefaults 0swaps
EXIT CODE 0

START INSTANCE
evidence-300.lp
clingo version 5.4.0
Reading from ...roblog_benchmarks/lpmln_smokers/asp.pl
Solving...
OPTIMUM FOUND

Models       : 2761
  Optimum    : yes
Optimization : 0
Calls        : 1
Time         : 0.360s (Solving: 0.07s 1st Model: 0.00s Unsat: 0.00s)
CPU Time     : 0.360s
Total time:  13.744107246398926
14.13user 0.28system 0:14.21elapsed 101%CPU (0avgtext+0avgdata 98192maxresident)k
0inputs+2456outputs (3major+42244minor)pagefaults 0swaps
EXIT CODE 0

START INSTANCE
evidence-400.lp
clingo version 5.4.0
Reading from ...roblog_benchmarks/lpmln_smokers/asp.pl
Solving...
OPTIMUM FOUND

Models       : 3400
  Optimum    : yes
Optimization : 0
Calls        : 1
Time         : 0.640s (Solving: 0.14s 1st Model: 0.00s Unsat: 0.00s)
CPU Time     : 0.634s
Total time:  29.48123860359192
29.79user 0.29system 0:29.94elapsed 100%CPU (0avgtext+0avgdata 118056maxresident)k
0inputs+4296outputs (4major+52405minor)pagefaults 0swaps
EXIT CODE 0

START INSTANCE
evidence-500.lp
clingo version 5.4.0
Reading from ...roblog_benchmarks/lpmln_smokers/asp.pl
Solving...
OPTIMUM FOUND

Models       : 4442
  Optimum    : yes
Optimization : 0
Calls        : 1
Time         : 1.142s (Solving: 0.27s 1st Model: 0.00s Unsat: 0.00s)
CPU Time     : 1.138s
Total time:  63.79325318336487
59.09user 5.26system 1:04.25elapsed 100%CPU (0avgtext+0avgdata 141524maxresident)k
0inputs+6664outputs (5major+5507246minor)pagefaults 0swaps
EXIT CODE 0

START INSTANCE
evidence-600.lp
clingo version 5.4.0
Reading from ...roblog_benchmarks/lpmln_smokers/asp.pl
Solving...
OPTIMUM FOUND

Models       : 5705
  Optimum    : yes
Optimization : 0
Calls        : 1
Time         : 1.544s (Solving: 0.35s 1st Model: 0.00s Unsat: 0.00s)
CPU Time     : 1.543s
Total time:  119.2839367389679
119.36user 0.39system 1:59.76elapsed 100%CPU (0avgtext+0avgdata 173992maxresident)k
0inputs+9568outputs (4major+78674minor)pagefaults 0swaps
EXIT CODE 0

START INSTANCE
evidence-700.lp
clingo version 5.4.0
Reading from ...roblog_benchmarks/lpmln_smokers/asp.pl
Solving...
OPTIMUM FOUND

Models       : 5816
  Optimum    : yes
Optimization : 0
Calls        : 1
Time         : 2.345s (Solving: 0.54s 1st Model: 0.00s Unsat: 0.00s)
CPU Time     : 2.344s
Total time:  252.92912101745605
233.60user 19.99system 4:13.43elapsed 100%CPU (0avgtext+0avgdata 207908maxresident)k
0inputs+12928outputs (4major+15619526minor)pagefaults 0swaps
EXIT CODE 0

START INSTANCE
evidence-800.lp
clingo version 5.4.0
Reading from ...roblog_benchmarks/lpmln_smokers/asp.pl
Solving...
OPTIMUM FOUND

Models       : 7339
  Optimum    : yes
Optimization : 0
Calls        : 1
Time         : 3.062s (Solving: 0.78s 1st Model: 0.00s Unsat: 0.00s)
CPU Time     : 3.062s
Total time:  404.2193841934204
404.25user 0.53system 6:44.71elapsed 100%CPU (0avgtext+0avgdata 255844maxresident)k
0inputs+16856outputs (4major+119078minor)pagefaults 0swaps
EXIT CODE 0

START INSTANCE
evidence-900.lp
clingo version 5.4.0
Reading from ...roblog_benchmarks/lpmln_smokers/asp.pl
Solving...
SATISFIABLE

INTERRUPTED  : 1
Models       : 8966+
  Optimum    : unknown
Optimization : 55114500
Calls        : 1
Time         : 522.383s (Solving: 519.36s 1st Model: 0.00s Unsat: 0.00s)
CPU Time     : 522.274s
Command exited with non-zero status 124
656.48user 21.14system 20:00.01elapsed 56%CPU (0avgtext+0avgdata 298820maxresident)k
0inputs+20688outputs (4major+15992659minor)pagefaults 0swaps
EXIT CODE 124

START INSTANCE
evidence-1000.lp
clingo version 5.4.0
Reading from ...roblog_benchmarks/lpmln_smokers/asp.pl
Solving...
SATISFIABLE

INTERRUPTED  : 1
Models       : 3127+
  Optimum    : unknown
Optimization : 93810000
Calls        : 1
Time         : 118.890s (Solving: 115.02s 1st Model: 0.00s Unsat: 0.00s)
CPU Time     : 118.823s
Command exited with non-zero status 124
1003.97user 76.63system 20:00.02elapsed 90%CPU (0avgtext+0avgdata 347648maxresident)k
0inputs+25584outputs (4major+60006727minor)pagefaults 0swaps
EXIT CODE 124

